\ Model Ore Mixing Problem
\ LP format - for model browsing. Use MPS format to capture full model detail.
Minimize
  351.6174402250352 a_max_00 + 269.4691457828079 a_max_01
   + 380.0836183960471 a_max_02 + 372.8560775540643 a_max_03
   + 5.5555555555555578e+06 a_max_10 + 2.0833333333333335e+06 a_max_11
   + 1.0309278350515465e+06 a_max_12 + 2.9411764705882347e+06 a_max_13
   + 5e+06 a_max_20 + 400000 a_max_21 + 322580.6451612903 a_max_22
   + 769230.7692307691 a_max_23 + 3.3333333333333302e+06 a_max_30
   + 476190.4761904762 a_max_31 + 344827.5862068965 a_max_32
   + 322580.6451612903 a_max_33 + 1e+06 a_max_40
   + 123456.7901234568 a_max_41 + 100000 a_max_42
   + 112359.5505617977 a_max_43 + 144927.536231884 a_max_50
   + 101010.101010101 a_max_51 + 147058.8235294118 a_max_52
   + 119047.6190476191 a_max_53 + 603.8647342995168 a_min_00
   + 1267.427122940431 a_min_01 + 535.0454788657037 a_min_02
   + 550.0550055005499 a_min_03 + 757575.7575757575 a_min_10
   + 980392.1568627451 a_min_11 + 1.8867924528301884e+06 a_min_12
   + 862068.9655172414 a_min_13 + 208333.3333333333 a_min_20
   + 400000 a_min_21 + 526315.7894736842 a_min_22
   + 270270.2702702702 a_min_23 + 212765.9574468085 a_min_30
   + 344827.5862068966 a_min_31 + 476190.4761904762 a_min_32
   + 526315.7894736842 a_min_33 + 111111.1111111111 a_min_40
   + 526315.7894736842 a_min_41 + 1e+11 a_min_42
   + 909090.9090909092 a_min_43 + 123456.7901234569 a_min_50
   + 196078.4313725491 a_min_51 + 121951.2195121951 a_min_52
   + 151515.1515151515 a_min_53 + 0.0603864734299517 b_min_00
   + 0.1267427122940431 b_min_01 + 0.0535045478865704 b_min_02
   + 0.055005500550055 b_min_03 + 5.555555555555557 b_min_10
   + 2.083333333333333 b_min_11 + 1.886792452830188 b_min_12
   + 2.941176470588235 b_min_13 + 50 b_min_20 + 4 b_min_21
   + 5.263157894736842 b_min_22 + 7.692307692307692 b_min_23
   + 33.33333333333331 b_min_30 + 4.761904761904762 b_min_31
   + 4.761904761904762 b_min_32 + 5.263157894736842 b_min_33 + 10 b_min_40
   + 5.263157894736842 b_min_41 + 1e+06 b_min_42
   + 9.090909090909092 b_min_43 + 1.44927536231884 b_min_50
   + 1.960784313725491 b_min_51 + 1.470588235294118 b_min_52
   + 1.515151515151515 b_min_53 + 0.0603864734299517 b_max_00
   + 0.1267427122940431 b_max_01 + 0.0535045478865704 b_max_02
   + 0.055005500550055 b_max_03 + 5.555555555555557 b_max_10
   + 2.083333333333333 b_max_11 + 1.886792452830188 b_max_12
   + 2.941176470588235 b_max_13 + 50 b_max_20 + 4 b_max_21
   + 5.263157894736842 b_max_22 + 7.692307692307692 b_max_23
   + 33.33333333333331 b_max_30 + 4.761904761904762 b_max_31
   + 4.761904761904762 b_max_32 + 5.263157894736842 b_max_33 + 10 b_max_40
   + 5.263157894736842 b_max_41 + 1e+06 b_max_42
   + 9.090909090909092 b_max_43 + 1.44927536231884 b_max_50
   + 1.960784313725491 b_max_51 + 1.470588235294118 b_max_52
   + 1.515151515151515 b_max_53
Subject To
 input_weight_constr_0: y_00 + y_01 + y_02 + y_03 + y_04 + y_05 <= 84.7
 input_weight_constr_1: y_10 + y_11 + y_12 + y_13 + y_14 + y_15 <= 84.7
 capacity_constr_0: y_00 + y_10 <= 534.8
 weight_constr_00: x_00 + x_01 + x_02 + x_03 - y_00 <= 1196.3
 weight_constr_01: x_00 + x_01 + x_02 + x_03 - y_10 <= 1196.3
 capacity_constr_1: y_01 + y_11 <= 229.5
 weight_constr_10: x_10 + x_11 + x_12 + x_13 - y_01 <= 617
 weight_constr_11: x_10 + x_11 + x_12 + x_13 - y_11 <= 617
 capacity_constr_2: y_02 + y_12 <= 447
 weight_constr_20: x_20 + x_21 + x_22 + x_23 - y_02 <= 1215
 weight_constr_21: x_20 + x_21 + x_22 + x_23 - y_12 <= 1215
 capacity_constr_3: y_03 + y_13 <= 453.7
 weight_constr_30: x_30 + x_31 + x_32 + x_33 - y_03 <= 786.6
 weight_constr_31: x_30 + x_31 + x_32 + x_33 - y_13 <= 786.6
 capacity_constr_4: y_04 + y_14 <= 150.3
 weight_constr_40: x_40 + x_41 + x_42 + x_43 - y_04 <= 1101.3
 weight_constr_41: x_40 + x_41 + x_42 + x_43 - y_14 <= 1101.3
 capacity_constr_5: y_05 + y_15 <= 180
 weight_constr_50: x_50 + x_51 + x_52 + x_53 - y_05 <= 1580.7
 weight_constr_51: x_50 + x_51 + x_52 + x_53 - y_15 <= 1580.7
 demand_constr_0: x_00 + x_10 + x_20 + x_30 + x_40 + x_50 = 866.3
 min_quality_constr_00: - 16.97 x_00 + 5.16 x_10 - 17.13 x_20 - 8.48 x_30
   + 23.7 x_40 + 12.88 x_50 + 866.3 a_min_00 >= -0
 max_quality_constr_00: - 61.97 x_00 - 39.84 x_10 - 62.13 x_20 - 53.48 x_30
   - 21.3 x_40 - 32.12 x_50 - 866.3 a_max_00 <= -0
 goal_quality_constr_00: - 33.53 x_00 - 11.4 x_10 - 33.69 x_20 - 25.04 x_30
   + 7.14 x_40 - 3.68 x_50 + 866.3 b_min_00 - 866.3 b_max_00 = -0
 min_quality_constr_10: 1.51 x_00 + 1.78 x_10 + 0.19 x_20 + 1.84 x_30
   + 0.63 x_40 + 1.07 x_50 + 866.3 a_min_10 >= -0
 max_quality_constr_10: 0.01 x_00 + 0.28 x_10 - 1.31 x_20 + 0.34 x_30
   - 0.87 x_40 - 0.43 x_50 - 866.3 a_max_10 <= -0
 goal_quality_constr_10: 0.19 x_00 + 0.46 x_10 - 1.13 x_20 + 0.52 x_30
   - 0.69 x_40 - 0.25 x_50 + 866.3 b_min_10 - 866.3 b_max_10 = -0
 min_quality_constr_20: 6.42 x_00 + 1.64 x_10 + 3.09 x_20 + 3.03 x_30
   + 0.02 x_40 + 5.94 x_50 + 866.3 a_min_20 >= -0
 max_quality_constr_20: 5.92 x_00 + 1.14 x_10 + 2.59 x_20 + 2.53 x_30
   - 0.48 x_40 + 5.44 x_50 - 866.3 a_max_20 <= -0
 goal_quality_constr_20: 5.94 x_00 + 1.16 x_10 + 2.61 x_20 + 2.55 x_30
   - 0.46 x_40 + 5.46 x_50 + 866.3 b_min_20 - 866.3 b_max_20 = -0
 min_quality_constr_30: 1.95 x_00 + 0.66 x_10 + 0.62 x_20 + 6.83 x_30
   + 6.36 x_40 + 1.89 x_50 + 866.3 a_min_30 >= -0
 max_quality_constr_30: 1.45 x_00 + 0.16 x_10 + 0.12 x_20 + 6.33 x_30
   + 5.86 x_40 + 1.39 x_50 - 866.3 a_max_30 <= -0
 goal_quality_constr_30: 1.48 x_00 + 0.19 x_10 + 0.15 x_20 + 6.36 x_30
   + 5.89 x_40 + 1.42 x_50 + 866.3 b_min_30 - 866.3 b_max_30 = -0
 min_quality_constr_40: 0.94 x_00 + 1.34 x_10 + 0.17 x_20 + 0.83 x_30
   + 0.63 x_40 + 1.31 x_50 + 866.3 a_min_40 >= -0
 max_quality_constr_40: - 0.06 x_00 + 0.34 x_10 - 0.83 x_20 - 0.17 x_30
   - 0.37 x_40 + 0.31 x_50 - 866.3 a_max_40 <= -0
 goal_quality_constr_40: 0.04 x_00 + 0.44 x_10 - 0.73 x_20 - 0.07 x_30
   - 0.27 x_40 + 0.41 x_50 + 866.3 b_min_40 - 866.3 b_max_40 = -0
 min_quality_constr_50: - 0.74 x_00 - 0.3 x_10 - 0.52 x_20 + 0.14 x_30
   + 1.74 x_40 + 2.28 x_50 + 866.3 a_min_50 >= -0
 max_quality_constr_50: - 2.24 x_00 - 1.8 x_10 - 2.02 x_20 - 1.36 x_30
   + 0.24 x_40 + 0.78 x_50 - 866.3 a_max_50 <= -0
 goal_quality_constr_50: - 1.55 x_00 - 1.11 x_10 - 1.33 x_20 - 0.67 x_30
   + 0.93 x_40 + 1.47 x_50 + 866.3 b_min_50 - 866.3 b_max_50 = -0
 demand_constr_1: x_01 + x_11 + x_21 + x_31 + x_41 + x_51 = 908.7
 min_quality_constr_01: - 16.97 x_01 + 5.16 x_11 - 17.13 x_21 - 8.48 x_31
   + 23.7 x_41 + 12.88 x_51 + 908.7 a_min_01 >= -0
 max_quality_constr_01: - 61.97 x_01 - 39.84 x_11 - 62.13 x_21 - 53.48 x_31
   - 21.3 x_41 - 32.12 x_51 - 908.7 a_max_01 <= -0
 goal_quality_constr_01: - 24.86 x_01 - 2.73 x_11 - 25.02 x_21 - 16.37 x_31
   + 15.81 x_41 + 4.99 x_51 + 908.7 b_min_01 - 908.7 b_max_01 = -0
 min_quality_constr_11: 1.51 x_01 + 1.78 x_11 + 0.19 x_21 + 1.84 x_31
   + 0.63 x_41 + 1.07 x_51 + 908.7 a_min_11 >= -0
 max_quality_constr_11: 0.01 x_01 + 0.28 x_11 - 1.31 x_21 + 0.34 x_31
   - 0.87 x_41 - 0.43 x_51 - 908.7 a_max_11 <= -0
 goal_quality_constr_11: 0.49 x_01 + 0.76 x_11 - 0.83 x_21 + 0.82 x_31
   - 0.39 x_41 + 0.05 x_51 + 908.7 b_min_11 - 908.7 b_max_11 = -0
 min_quality_constr_21: 6.42 x_01 + 1.64 x_11 + 3.09 x_21 + 3.03 x_31
   + 0.02 x_41 + 5.94 x_51 + 908.7 a_min_21 >= -0
 max_quality_constr_21: 5.92 x_01 + 1.14 x_11 + 2.59 x_21 + 2.53 x_31
   - 0.48 x_41 + 5.44 x_51 - 908.7 a_max_21 <= -0
 goal_quality_constr_21: 6.17 x_01 + 1.39 x_11 + 2.84 x_21 + 2.78 x_31
   - 0.23 x_41 + 5.69 x_51 + 908.7 b_min_21 - 908.7 b_max_21 = -0
 min_quality_constr_31: 1.95 x_01 + 0.66 x_11 + 0.62 x_21 + 6.83 x_31
   + 6.36 x_41 + 1.89 x_51 + 908.7 a_min_31 >= -0
 max_quality_constr_31: 1.45 x_01 + 0.16 x_11 + 0.12 x_21 + 6.33 x_31
   + 5.86 x_41 + 1.39 x_51 - 908.7 a_max_31 <= -0
 goal_quality_constr_31: 1.66 x_01 + 0.37 x_11 + 0.33 x_21 + 6.54 x_31
   + 6.07 x_41 + 1.6 x_51 + 908.7 b_min_31 - 908.7 b_max_31 = -0
 min_quality_constr_41: 0.94 x_01 + 1.34 x_11 + 0.17 x_21 + 0.83 x_31
   + 0.63 x_41 + 1.31 x_51 + 908.7 a_min_41 >= -0
 max_quality_constr_41: - 0.06 x_01 + 0.34 x_11 - 0.83 x_21 - 0.17 x_31
   - 0.37 x_41 + 0.31 x_51 - 908.7 a_max_41 <= -0
 goal_quality_constr_41: 0.75 x_01 + 1.15 x_11 - 0.02 x_21 + 0.64 x_31
   + 0.44 x_41 + 1.12 x_51 + 908.7 b_min_41 - 908.7 b_max_41 = -0
 min_quality_constr_51: - 0.74 x_01 - 0.3 x_11 - 0.52 x_21 + 0.14 x_31
   + 1.74 x_41 + 2.28 x_51 + 908.7 a_min_51 >= -0
 max_quality_constr_51: - 2.24 x_01 - 1.8 x_11 - 2.02 x_21 - 1.36 x_31
   + 0.24 x_41 + 0.78 x_51 - 908.7 a_max_51 <= -0
 goal_quality_constr_51: - 1.25 x_01 - 0.81 x_11 - 1.03 x_21 - 0.37 x_31
   + 1.23 x_41 + 1.77 x_51 + 908.7 b_min_51 - 908.7 b_max_51 = -0
 demand_constr_2: x_02 + x_12 + x_22 + x_32 + x_42 + x_52 = 1166.5
 min_quality_constr_02: - 16.97 x_02 + 5.16 x_12 - 17.13 x_22 - 8.48 x_32
   + 23.7 x_42 + 12.88 x_52 + 1166.5 a_min_02 >= -0
 max_quality_constr_02: - 61.97 x_02 - 39.84 x_12 - 62.13 x_22 - 53.48 x_32
   - 21.3 x_42 - 32.12 x_52 - 1166.5 a_max_02 <= -0
 goal_quality_constr_02: - 35.66 x_02 - 13.53 x_12 - 35.82 x_22
   - 27.17 x_32 + 5.01 x_42 - 5.81 x_52 + 1166.5 b_min_02 - 1166.5 b_max_02
   = -0
 min_quality_constr_12: 1.51 x_02 + 1.78 x_12 + 0.19 x_22 + 1.84 x_32
   + 0.63 x_42 + 1.07 x_52 + 1166.5 a_min_12 >= -0
 max_quality_constr_12: 0.01 x_02 + 0.28 x_12 - 1.31 x_22 + 0.34 x_32
   - 0.87 x_42 - 0.43 x_52 - 1166.5 a_max_12 <= -0
 goal_quality_constr_12: 0.98 x_02 + 1.25 x_12 - 0.34 x_22 + 1.31 x_32
   + 0.1 x_42 + 0.54 x_52 + 1166.5 b_min_12 - 1166.5 b_max_12 = -0
 min_quality_constr_22: 6.42 x_02 + 1.64 x_12 + 3.09 x_22 + 3.03 x_32
   + 0.02 x_42 + 5.94 x_52 + 1166.5 a_min_22 >= -0
 max_quality_constr_22: 5.92 x_02 + 1.14 x_12 + 2.59 x_22 + 2.53 x_32
   - 0.48 x_42 + 5.44 x_52 - 1166.5 a_max_22 <= -0
 goal_quality_constr_22: 6.23 x_02 + 1.45 x_12 + 2.9 x_22 + 2.84 x_32
   - 0.17 x_42 + 5.75 x_52 + 1166.5 b_min_22 - 1166.5 b_max_22 = -0
 min_quality_constr_32: 1.95 x_02 + 0.66 x_12 + 0.62 x_22 + 6.83 x_32
   + 6.36 x_42 + 1.89 x_52 + 1166.5 a_min_32 >= -0
 max_quality_constr_32: 1.45 x_02 + 0.16 x_12 + 0.12 x_22 + 6.33 x_32
   + 5.86 x_42 + 1.39 x_52 - 1166.5 a_max_32 <= -0
 goal_quality_constr_32: 1.74 x_02 + 0.45 x_12 + 0.41 x_22 + 6.62 x_32
   + 6.15 x_42 + 1.68 x_52 + 1166.5 b_min_32 - 1166.5 b_max_32 = -0
 min_quality_constr_42: 0.94 x_02 + 1.34 x_12 + 0.17 x_22 + 0.83 x_32
   + 0.63 x_42 + 1.31 x_52 + 1166.5 a_min_42 >= -0
 max_quality_constr_42: - 0.06 x_02 + 0.34 x_12 - 0.83 x_22 - 0.17 x_32
   - 0.37 x_42 + 0.31 x_52 - 1166.5 a_max_42 <= -0
 goal_quality_constr_42: 0.94 x_02 + 1.34 x_12 + 0.17 x_22 + 0.83 x_32
   + 0.63 x_42 + 1.31 x_52 + 1166.5 b_min_42 - 1166.5 b_max_42 = -0
 min_quality_constr_52: - 0.74 x_02 - 0.3 x_12 - 0.52 x_22 + 0.14 x_32
   + 1.74 x_42 + 2.28 x_52 + 1166.5 a_min_52 >= -0
 max_quality_constr_52: - 2.24 x_02 - 1.8 x_12 - 2.02 x_22 - 1.36 x_32
   + 0.24 x_42 + 0.78 x_52 - 1166.5 a_max_52 <= -0
 goal_quality_constr_52: - 1.56 x_02 - 1.12 x_12 - 1.34 x_22 - 0.68 x_32
   + 0.92 x_42 + 1.46 x_52 + 1166.5 b_min_52 - 1166.5 b_max_52 = -0
 demand_constr_3: x_03 + x_13 + x_23 + x_33 + x_43 + x_53 = 1454.2
 min_quality_constr_03: - 16.97 x_03 + 5.16 x_13 - 17.13 x_23 - 8.48 x_33
   + 23.7 x_43 + 12.88 x_53 + 1454.2 a_min_03 >= -0
 max_quality_constr_03: - 61.97 x_03 - 39.84 x_13 - 62.13 x_23 - 53.48 x_33
   - 21.3 x_43 - 32.12 x_53 - 1454.2 a_max_03 <= -0
 goal_quality_constr_03: - 35.15 x_03 - 13.02 x_13 - 35.31 x_23
   - 26.66 x_33 + 5.52 x_43 - 5.3 x_53 + 1454.2 b_min_03 - 1454.2 b_max_03
   = -0
 min_quality_constr_13: 1.51 x_03 + 1.78 x_13 + 0.19 x_23 + 1.84 x_33
   + 0.63 x_43 + 1.07 x_53 + 1454.2 a_min_13 >= -0
 max_quality_constr_13: 0.01 x_03 + 0.28 x_13 - 1.31 x_23 + 0.34 x_33
   - 0.87 x_43 - 0.43 x_53 - 1454.2 a_max_13 <= -0
 goal_quality_constr_13: 0.35 x_03 + 0.62 x_13 - 0.97 x_23 + 0.68 x_33
   - 0.53 x_43 - 0.09 x_53 + 1454.2 b_min_13 - 1454.2 b_max_13 = -0
 min_quality_constr_23: 6.42 x_03 + 1.64 x_13 + 3.09 x_23 + 3.03 x_33
   + 0.02 x_43 + 5.94 x_53 + 1454.2 a_min_23 >= -0
 max_quality_constr_23: 5.92 x_03 + 1.14 x_13 + 2.59 x_23 + 2.53 x_33
   - 0.48 x_43 + 5.44 x_53 - 1454.2 a_max_23 <= -0
 goal_quality_constr_23: 6.05 x_03 + 1.27 x_13 + 2.72 x_23 + 2.66 x_33
   - 0.35 x_43 + 5.57 x_53 + 1454.2 b_min_23 - 1454.2 b_max_23 = -0
 min_quality_constr_33: 1.95 x_03 + 0.66 x_13 + 0.62 x_23 + 6.83 x_33
   + 6.36 x_43 + 1.89 x_53 + 1454.2 a_min_33 >= -0
 max_quality_constr_33: 1.45 x_03 + 0.16 x_13 + 0.12 x_23 + 6.33 x_33
   + 5.86 x_43 + 1.39 x_53 - 1454.2 a_max_33 <= -0
 goal_quality_constr_33: 1.76 x_03 + 0.47 x_13 + 0.43 x_23 + 6.64 x_33
   + 6.17 x_43 + 1.7 x_53 + 1454.2 b_min_33 - 1454.2 b_max_33 = -0
 min_quality_constr_43: 0.94 x_03 + 1.34 x_13 + 0.17 x_23 + 0.83 x_33
   + 0.63 x_43 + 1.31 x_53 + 1454.2 a_min_43 >= -0
 max_quality_constr_43: - 0.06 x_03 + 0.34 x_13 - 0.83 x_23 - 0.17 x_33
   - 0.37 x_43 + 0.31 x_53 - 1454.2 a_max_43 <= -0
 goal_quality_constr_43: 0.83 x_03 + 1.23 x_13 + 0.06 x_23 + 0.72 x_33
   + 0.52 x_43 + 1.2 x_53 + 1454.2 b_min_43 - 1454.2 b_max_43 = -0
 min_quality_constr_53: - 0.74 x_03 - 0.3 x_13 - 0.52 x_23 + 0.14 x_33
   + 1.74 x_43 + 2.28 x_53 + 1454.2 a_min_53 >= -0
 max_quality_constr_53: - 2.24 x_03 - 1.8 x_13 - 2.02 x_23 - 1.36 x_33
   + 0.24 x_43 + 0.78 x_53 - 1454.2 a_max_53 <= -0
 goal_quality_constr_53: - 1.4 x_03 - 0.96 x_13 - 1.18 x_23 - 0.52 x_33
   + 1.08 x_43 + 1.62 x_53 + 1454.2 b_min_53 - 1454.2 b_max_53 = -0
Bounds
End
